4 
5  21 37 52 
6  07 22 37 52 
7  07 22 37 52 
8  07 22 37 52 
9  07 22 37 52 
10  07 22 37 52 
11  07 22 37 52 
12  07 22 37 52 
13  07 22 39 54 
14  09 24 39 54 
15  09 24 39 54 
16  09 24 39 54 
17  09 24 39 54 
18  09 24 39 54 
19  09 24 37 52 
20  07 22 37 52 
21  07 22 37 52 
22  07 22 39 57 
23  25 
0 
